p cnf 704
-19 -188
-20 -191
-21 -194
-22 -197
-23 -200
-24 -203
-25 -206
-26 -209
-27 -212
-28 -215
-29 -218
-30 -221
-31 -224
-32 -227
-33 -230
-34 -233
-35 -236
-36 -239
-37 -241
-38 -243
-39 -245
-40 -247
-41 -249
-42 -251
-43 -253
-44 -255
-45 -257
-46 -259
-47 -261
-48 -263
-49 -265
-50 -267
-51 -269
-52 -271
-53 -273
-54 -275
-55 276
-56 -29
-56 36
29 -36 56
-57 29
-57 -36
-29 36 57
-58 -56
-58 -57
56 57 58
-59 -1
-59 -2
1 2 59
-60 -3
-60 -4
3 4 60
-61 -5
-61 -6
5 6 61
-62 -7
-62 -8
7 8 62
-63 -9
-63 -10
9 10 63
-64 -11
-64 -12
11 12 64
-65 -13
-65 -14
13 14 65
-66 -15
-66 -16
15 16 66
-67 -17
-67 -18
17 18 67
-68 59
-68 60
-59 -60 68
-69 61
-69 62
-61 -62 69
-70 63
-70 64
-63 -64 70
-71 65
-71 66
-65 -66 71
-72 68
-72 69
-68 -69 72
-73 70
-73 71
-70 -71 73
-74 72
-74 73
-72 -73 74
-75 67
-75 74
-67 -74 75
-76 -37
-76 -38
37 38 76
-77 -39
-77 -40
39 40 77
-78 -41
-78 -42
41 42 78
-79 -43
-79 -44
43 44 79
-80 -45
-80 -46
45 46 80
-81 -47
-81 -48
47 48 81
-82 -49
-82 -50
49 50 82
-83 -51
-83 -52
51 52 83
-84 -53
-84 -54
53 54 84
-85 76
-85 77
-76 -77 85
-86 78
-86 79
-78 -79 86
-87 80
-87 81
-80 -81 87
-88 82
-88 83
-82 -83 88
-89 85
-89 86
-85 -86 89
-90 87
-90 88
-87 -88 90
-91 89
-91 90
-89 -90 91
-92 84
-92 91
-84 -91 92
-93 37
-93 -58
-37 58 93
-94 -37
-94 58
37 -58 94
-95 -93
-95 -94
93 94 95
-96 19
-96 38
-19 -38 96
-97 -19
-97 -38
19 38 97
-98 -96
-98 -97
96 97 98
-99 20
-99 39
-20 -39 99
-100 -20
-100 -39
20 39 100
-101 -99
-101 -100
99 100 101
-102 21
-102 40
-21 -40 102
-103 -21
-103 -40
21 40 103
-104 -102
-104 -103
102 103 104
-105 22
-105 41
-22 -41 105
-106 -22
-106 -41
22 41 106
-107 -105
-107 -106
105 106 107
-108 23
-108 42
-23 -42 108
-109 -23
-109 -42
23 42 109
-110 -108
-110 -109
108 109 110
-111 24
-111 43
-24 -43 111
-112 -24
-112 -43
24 43 112
-113 -111
-113 -112
111 112 113
-114 25
-114 44
-25 -44 114
-115 -25
-115 -44
25 44 115
-116 -114
-116 -115
114 115 116
-117 26
-117 45
-26 -45 117
-118 -26
-118 -45
26 45 118
-119 -117
-119 -118
117 118 119
-120 27
-120 46
-27 -46 120
-121 -27
-121 -46
27 46 121
-122 -120
-122 -121
120 121 122
-123 28
-123 47
-28 -47 123
-124 -28
-124 -47
28 47 124
-125 -123
-125 -124
123 124 125
-126 29
-126 48
-29 -48 126
-127 -29
-127 -48
29 48 127
-128 -126
-128 -127
126 127 128
-129 30
-129 49
-30 -49 129
-130 -30
-130 -49
30 49 130
-131 -129
-131 -130
129 130 131
-132 31
-132 50
-31 -50 132
-133 -31
-133 -50
31 50 133
-134 -132
-134 -133
132 133 134
-135 32
-135 51
-32 -51 135
-136 -32
-136 -51
32 51 136
-137 -135
-137 -136
135 136 137
-138 33
-138 52
-33 -52 138
-139 -33
-139 -52
33 52 139
-140 -138
-140 -139
138 139 140
-141 34
-141 53
-34 -53 141
-142 -34
-142 -53
34 53 142
-143 -141
-143 -142
141 142 143
-144 35
-144 54
-35 -54 144
-145 -35
-145 -54
35 54 145
-146 -144
-146 -145
144 145 146
-147 -95
-147 -98
95 98 147
-148 -101
-148 -104
101 104 148
-149 -107
-149 -110
107 110 149
-150 -113
-150 -116
113 116 150
-151 -119
-151 -122
119 122 151
-152 -125
-152 -128
125 128 152
-153 -131
-153 -134
131 134 153
-154 -137
-154 -140
137 140 154
-155 -143
-155 -146
143 146 155
-156 147
-156 148
-147 -148 156
-157 149
-157 150
-149 -150 157
-158 151
-158 152
-151 -152 158
-159 153
-159 154
-153 -154 159
-160 156
-160 157
-156 -157 160
-161 158
-161 159
-158 -159 161
-162 160
-162 161
-160 -161 162
-163 155
-163 162
-155 -162 163
-164 -92
-164 163
92 -163 164
-165 55
-165 164
-55 -164 165
-166 75
-166 165
-75 -165 166
-167 -19
-167 58
19 -58 167
-168 -20
-168 -21
20 21 168
-169 -22
-169 -23
22 23 169
-170 -24
-170 -25
24 25 170
-171 -26
-171 -27
26 27 171
-172 -28
-172 -29
28 29 172
-173 -30
-173 -31
30 31 173
-174 -32
-174 -33
32 33 174
-175 -34
-175 -35
34 35 175
-176 167
-176 168
-167 -168 176
-177 169
-177 170
-169 -170 177
-178 171
-178 172
-171 -172 178
-179 173
-179 174
-173 -174 179
-180 176
-180 177
-176 -177 180
-181 178
-181 179
-178 -179 181
-182 180
-182 181
-180 -181 182
-183 175
-183 182
-175 -182 183
-184 -92
-184 183
92 -183 184
-185 75
-185 -164
-75 164 185
-186 1
-186 -75
-1 75 186
-187 -58
-187 75
58 -75 187
-188 -186
-188 -187
186 187 188
-189 2
-189 -75
-2 75 189
-190 19
-190 75
-19 -75 190
-191 -189
-191 -190
189 190 191
-192 3
-192 -75
-3 75 192
-193 20
-193 75
-20 -75 193
-194 -192
-194 -193
192 193 194
-195 4
-195 -75
-4 75 195
-196 21
-196 75
-21 -75 196
-197 -195
-197 -196
195 196 197
-198 5
-198 -75
-5 75 198
-199 22
-199 75
-22 -75 199
-200 -198
-200 -199
198 199 200
-201 6
-201 -75
-6 75 201
-202 23
-202 75
-23 -75 202
-203 -201
-203 -202
201 202 203
-204 7
-204 -75
-7 75 204
-205 24
-205 75
-24 -75 205
-206 -204
-206 -205
204 205 206
-207 8
-207 -75
-8 75 207
-208 25
-208 75
-25 -75 208
-209 -207
-209 -208
207 208 209
-210 9
-210 -75
-9 75 210
-211 26
-211 75
-26 -75 211
-212 -210
-212 -211
210 211 212
-213 10
-213 -75
-10 75 213
-214 27
-214 75
-27 -75 214
-215 -213
-215 -214
213 214 215
-216 11
-216 -75
-11 75 216
-217 28
-217 75
-28 -75 217
-218 -216
-218 -217
216 217 218
-219 12
-219 -75
-12 75 219
-220 29
-220 75
-29 -75 220
-221 -219
-221 -220
219 220 221
-222 13
-222 -75
-13 75 222
-223 30
-223 75
-30 -75 223
-224 -222
-224 -223
222 223 224
-225 14
-225 -75
-14 75 225
-226 31
-226 75
-31 -75 226
-227 -225
-227 -226
225 226 227
-228 15
-228 -75
-15 75 228
-229 32
-229 75
-32 -75 229
-230 -228
-230 -229
228 229 230
-231 16
-231 -75
-16 75 231
-232 33
-232 75
-33 -75 232
-233 -231
-233 -232
231 232 233
-234 17
-234 -75
-17 75 234
-235 34
-235 75
-34 -75 235
-236 -234
-236 -235
234 235 236
-237 18
-237 -75
-18 75 237
-238 35
-238 75
-35 -75 238
-239 -237
-239 -238
237 238 239
-240 37
-240 75
-37 -75 240
-241 -186
-241 -240
186 240 241
-242 38
-242 75
-38 -75 242
-243 -189
-243 -242
189 242 243
-244 39
-244 75
-39 -75 244
-245 -192
-245 -244
192 244 245
-246 40
-246 75
-40 -75 246
-247 -195
-247 -246
195 246 247
-248 41
-248 75
-41 -75 248
-249 -198
-249 -248
198 248 249
-250 42
-250 75
-42 -75 250
-251 -201
-251 -250
201 250 251
-252 43
-252 75
-43 -75 252
-253 -204
-253 -252
204 252 253
-254 44
-254 75
-44 -75 254
-255 -207
-255 -254
207 254 255
-256 45
-256 75
-45 -75 256
-257 -210
-257 -256
210 256 257
-258 46
-258 75
-46 -75 258
-259 -213
-259 -258
213 258 259
-260 47
-260 75
-47 -75 260
-261 -216
-261 -260
216 260 261
-262 48
-262 75
-48 -75 262
-263 -219
-263 -262
219 262 263
-264 49
-264 75
-49 -75 264
-265 -222
-265 -264
222 264 265
-266 50
-266 75
-50 -75 266
-267 -225
-267 -266
225 266 267
-268 51
-268 75
-51 -75 268
-269 -228
-269 -268
228 268 269
-270 52
-270 75
-52 -75 270
-271 -231
-271 -270
231 270 271
-272 53
-272 75
-53 -75 272
-273 -234
-273 -272
234 272 273
-274 54
-274 75
-54 -75 274
-275 -237
-275 -274
237 274 275
-276 -55
-276 185
55 -185 276
-277 -166
-277 -184
166 184 277
-277
